% seed = 0

mint = 31;
% maxt = 134;

nActs = 62;
dur = [0,3,3,1,3,3,1,1,3,2,1,2,1,4,2,2,1,2,3,1,3,1,1,1,3,2,4,3,5,4,4,3,4,3,3,4,1,1,2,1,1,2,2,1,3,1,1,3,1,3,1,3,1,2,2,1,4,3,1,3,3,0];

nSkills = 12;
sreq = [| 0,0,0,0,0,0,0,0,0,0,0,0,
	| 0,0,0,0,0,0,0,1,2,0,0,1,
	| 0,0,0,0,0,0,0,0,1,0,0,0,
	| 0,0,0,0,0,0,0,0,1,0,0,0,
	| 0,0,0,0,0,0,1,0,0,0,0,0,
	| 0,0,0,0,0,0,0,1,0,0,0,0,
	| 0,0,0,0,0,1,0,0,0,0,0,0,
	| 0,0,0,0,0,0,0,0,1,0,0,1,
	| 0,0,0,0,0,0,1,0,3,0,0,0,
	| 0,0,0,0,0,1,0,0,0,0,1,0,
	| 0,0,0,0,0,0,0,1,1,0,1,0,
	| 0,0,0,0,0,1,2,0,0,0,0,0,
	| 0,0,0,0,0,0,2,0,0,0,0,0,
	| 0,0,0,0,0,0,2,0,0,0,1,0,
	| 1,0,0,0,0,1,0,0,0,0,1,1,
	| 0,0,0,0,1,0,0,0,0,0,0,0,
	| 0,0,0,0,0,0,0,0,0,0,0,1,
	| 0,1,0,0,0,1,1,0,0,0,0,0,
	| 1,0,0,0,0,0,0,0,0,0,0,1,
	| 0,0,1,0,0,0,0,0,0,0,1,1,
	| 0,0,1,1,0,0,0,0,0,0,0,1,
	| 0,0,0,0,1,0,0,1,0,0,0,0,
	| 0,0,0,0,0,0,0,0,1,0,0,1,
	| 0,0,0,0,0,0,1,0,1,0,0,0,
	| 0,0,0,0,0,0,0,1,0,1,0,1,
	| 0,0,0,0,0,0,0,0,1,0,0,1,
	| 0,0,0,1,0,0,1,0,1,0,0,0,
	| 0,0,0,1,1,0,0,0,0,0,0,0,
	| 0,0,0,0,0,0,0,0,1,0,0,0,
	| 0,0,1,0,0,1,1,1,0,0,0,0,
	| 0,0,0,0,0,0,0,0,0,0,2,0,
	| 0,0,1,0,0,0,1,1,0,0,0,0,
	| 0,0,0,1,0,0,1,0,1,0,0,0,
	| 0,0,0,0,0,0,0,0,1,0,1,0,
	| 0,0,0,0,0,0,0,2,0,1,0,0,
	| 0,0,0,0,0,0,0,0,1,0,1,1,
	| 0,0,0,0,0,0,0,1,1,0,1,0,
	| 1,0,0,0,1,0,0,1,0,0,0,0,
	| 0,0,0,0,0,0,0,0,2,0,1,1,
	| 0,0,0,0,0,0,2,0,0,0,0,0,
	| 0,0,0,0,0,0,0,1,0,0,0,0,
	| 0,0,0,1,0,0,0,0,2,0,0,0,
	| 0,0,0,0,0,1,0,0,1,0,0,1,
	| 0,0,0,0,0,0,0,0,1,0,0,0,
	| 0,0,0,0,1,0,0,1,1,0,1,0,
	| 0,0,0,0,0,0,0,1,1,0,0,0,
	| 0,0,0,1,0,0,1,0,1,0,0,0,
	| 0,0,1,0,1,0,1,1,0,0,0,0,
	| 0,0,0,0,0,0,1,1,1,0,0,0,
	| 1,0,0,0,0,0,1,0,2,0,0,0,
	| 0,0,0,0,0,0,1,0,1,0,1,1,
	| 0,0,0,0,0,0,0,1,0,0,0,1,
	| 0,0,0,0,0,1,1,0,0,0,2,0,
	| 0,1,1,0,0,0,0,0,0,0,0,0,
	| 0,0,0,0,0,0,0,1,0,1,0,1,
	| 0,0,0,1,0,0,1,2,0,0,0,0,
	| 0,0,0,0,0,0,0,0,2,0,0,0,
	| 0,0,0,0,0,0,1,1,1,0,0,1,
	| 0,0,0,1,0,0,1,0,0,0,1,1,
	| 0,0,0,0,1,0,0,0,0,0,1,0,
	| 0,0,0,1,0,0,1,1,0,0,0,1,
	| 0,0,0,0,0,0,0,0,0,0,0,0, |];

% SumOfsreq = 157;

nResources = 12;
mastery = [| false,false,true,true,true,true,false,true,true,false,false,true,
	| false,false,false,true,true,true,false,true,true,false,false,false,
	| false,false,false,false,false,false,true,true,true,false,false,true,
	| false,false,false,false,false,false,true,true,true,false,false,false,
	| false,false,true,false,false,false,false,false,false,true,true,true,
	| false,false,false,false,false,false,true,true,true,false,false,false,
	| false,false,false,false,false,false,false,false,false,false,false,true,
	| false,false,false,false,false,false,false,false,false,false,true,true,
	| false,false,false,true,true,true,false,false,true,false,false,false,
	| false,false,false,false,false,false,true,true,true,false,false,false,
	| true,true,true,false,false,false,true,true,true,false,false,false,
	| false,false,false,false,false,false,false,false,false,false,false,true, |];

nPrecs = 131;
pred = [1,1,1,2,2,2,3,3,3,4,4,5,5,5,6,6,6,7,7,7,8,8,8,9,10,10,10,11,11,11,12,12,12,13,13,13,14,14,15,15,15,16,16,16,17,17,17,18,19,19,19,20,20,21,21,21,22,22,22,23,23,23,24,24,25,25,25,26,26,27,27,27,28,29,29,29,30,30,31,31,31,32,32,32,33,33,34,35,35,35,36,36,37,37,37,38,38,39,39,39,40,40,41,41,42,42,42,43,44,44,44,45,45,46,47,48,48,49,50,51,52,53,53,54,55,56,57,58,59,60,61];
succ = [2,3,4,5,7,8,13,14,40,9,42,32,6,14,9,19,31,17,10,15,41,50,46,35,11,12,16,18,37,23,20,22,24,22,39,30,35,20,18,35,31,18,27,29,41,34,21,21,33,27,53,59,47,26,28,40,41,36,28,26,43,45,25,55,28,37,31,36,55,45,38,39,44,57,43,60,33,38,49,34,45,36,39,40,37,54,53,52,46,56,44,38,49,47,48,51,48,42,46,54,42,53,61,48,43,60,55,50,49,50,52,54,47,61,61,58,52,51,51,58,59,57,60,56,56,57,58,59,62,62,62];

nUnrels = 950;
unpred = [2,2,2,2,3,3,3,3,3,3,3,3,3,3,3,3,3,3,3,3,3,3,3,3,3,3,3,3,3,4,4,4,4,4,4,4,4,4,4,4,4,4,4,4,4,4,4,4,4,4,4,4,4,4,4,4,4,4,4,4,4,4,4,4,4,4,4,4,4,4,4,5,5,5,5,5,5,5,5,5,5,5,5,5,5,5,5,5,5,5,5,6,6,6,6,6,6,6,6,6,6,6,6,6,6,6,6,6,6,6,6,6,6,6,6,6,6,7,7,7,7,7,7,7,7,8,8,8,8,8,8,8,8,8,8,8,8,8,8,8,8,8,8,8,8,8,8,8,8,8,8,8,8,8,8,8,8,8,8,8,8,8,8,8,8,8,8,8,8,9,9,9,9,9,9,9,9,9,9,9,9,9,9,9,9,9,9,9,9,9,9,9,9,9,9,9,9,9,9,9,9,9,9,9,9,9,9,9,9,9,9,9,9,10,10,10,10,10,10,10,10,10,11,11,11,11,11,11,11,11,11,11,11,11,11,11,11,11,11,11,11,11,11,11,12,12,12,12,12,12,12,12,12,12,12,12,12,12,12,12,12,12,12,12,12,13,13,13,13,13,13,13,13,13,13,13,13,13,13,13,13,13,13,13,13,13,14,14,14,14,14,14,14,14,14,14,14,14,14,14,14,14,14,14,14,14,14,14,14,14,14,14,14,14,14,14,14,14,14,14,14,14,14,15,15,15,15,15,15,15,15,15,15,15,15,15,15,15,15,16,16,16,16,16,16,16,16,16,16,16,16,16,16,16,17,17,17,17,17,17,17,17,17,17,17,17,17,17,17,17,17,17,17,17,18,18,18,18,18,18,18,18,18,18,18,18,18,18,18,18,18,18,18,18,18,18,19,19,19,19,19,19,19,19,19,19,19,19,19,19,19,19,19,19,20,20,20,20,20,20,20,20,20,20,20,20,20,20,20,20,20,20,20,20,20,20,20,20,20,20,20,20,20,20,20,20,20,20,20,20,20,20,21,21,21,21,21,21,21,21,21,21,21,21,21,21,21,21,21,21,21,21,22,22,22,22,22,22,22,22,22,22,22,22,22,22,22,22,22,22,22,22,22,22,22,22,22,22,23,23,23,23,23,23,23,23,23,23,23,23,23,23,23,23,23,23,23,24,24,24,24,24,24,24,24,24,24,24,24,24,24,24,25,25,25,25,25,25,25,25,25,25,25,25,25,25,25,25,26,26,26,26,26,26,26,26,26,26,26,26,26,26,26,26,26,26,26,26,26,26,27,27,27,27,27,27,27,27,27,27,27,27,27,27,27,28,28,28,28,28,28,28,28,28,28,28,28,28,28,28,28,28,28,28,28,28,28,28,28,28,28,29,29,29,29,29,29,29,29,29,29,29,29,29,29,29,29,29,29,29,29,29,29,29,29,29,30,30,30,30,30,30,30,30,30,30,30,30,30,30,30,30,30,31,31,31,31,31,31,31,31,31,31,31,31,31,31,31,31,31,32,32,32,32,32,32,32,33,33,33,33,33,33,33,33,33,33,33,33,33,33,33,33,34,34,34,34,34,34,34,34,34,34,34,34,34,34,34,34,34,34,34,34,34,34,35,35,35,35,35,35,35,35,35,35,35,35,35,35,35,35,35,35,35,36,36,36,36,36,36,36,36,36,36,36,36,36,36,36,36,37,37,37,37,37,37,37,37,37,37,37,37,37,37,37,37,38,38,38,38,38,38,38,38,38,38,38,38,38,38,38,38,38,38,39,39,39,39,39,39,39,39,39,40,40,40,40,40,40,40,40,40,40,41,41,41,41,41,41,41,41,41,41,41,41,41,41,41,42,42,42,42,42,42,42,42,42,42,43,43,43,43,43,43,43,43,43,43,43,43,43,43,44,44,44,44,44,44,44,44,44,44,44,45,45,45,45,45,45,45,45,45,46,46,46,46,46,46,46,46,46,46,46,46,46,46,47,47,47,47,47,47,47,47,47,47,47,47,47,48,48,48,48,48,48,48,48,48,48,49,49,49,49,49,49,49,49,49,50,50,50,50,50,50,50,50,51,51,51,51,51,51,51,51,52,52,52,52,52,52,52,52,53,53,53,53,54,54,54,55,55,56,56,57,57,58,58,59,59,60];
unsucc = [3,4,13,30,4,5,6,7,8,9,10,11,12,15,16,17,18,19,21,23,24,25,26,27,29,31,32,34,45,5,6,7,8,10,11,12,13,14,15,16,17,18,19,20,21,22,23,24,25,26,27,28,29,30,31,32,33,34,36,37,38,39,40,41,44,45,47,48,49,53,54,7,8,10,11,12,13,15,16,17,18,21,22,23,24,25,26,28,29,30,41,7,8,10,11,12,13,14,15,16,17,18,20,21,22,23,24,25,26,28,29,30,32,36,40,41,44,8,9,13,14,19,30,32,33,9,10,11,12,13,14,15,16,17,18,19,20,21,22,23,24,25,26,27,28,29,30,31,32,33,34,35,36,37,38,39,40,42,43,44,45,47,49,53,54,55,56,57,60,10,11,12,13,14,15,16,17,18,19,20,21,22,23,24,25,26,27,28,29,30,31,32,33,34,36,37,38,39,40,41,42,43,44,45,47,48,49,50,51,53,54,55,60,13,14,15,17,19,30,32,33,35,12,13,14,15,16,17,19,20,22,24,25,27,29,30,31,32,33,34,35,39,41,46,13,14,15,16,17,18,19,21,23,26,27,29,30,32,33,35,39,40,42,43,46,14,15,16,17,18,19,20,21,23,24,25,26,27,29,31,32,34,35,40,45,53,15,16,17,18,19,21,22,23,24,25,26,27,28,29,30,31,32,33,34,36,37,38,39,40,41,42,43,44,45,48,49,50,51,53,54,55,60,16,17,19,20,22,23,24,25,27,29,30,32,33,37,39,41,17,19,20,22,23,24,25,30,31,32,33,34,35,37,41,18,19,20,22,23,24,25,27,29,30,31,32,33,35,37,39,45,46,47,54,19,20,22,23,24,25,27,29,30,31,32,33,34,35,37,39,41,45,46,47,54,61,20,21,22,23,24,25,26,28,29,30,31,32,34,35,36,40,41,44,21,22,23,24,25,26,27,28,29,30,31,32,33,34,35,36,37,38,39,40,41,42,43,44,45,46,48,49,50,51,52,53,54,55,56,57,58,60,22,23,24,25,27,29,30,31,32,33,34,35,37,39,41,45,46,47,54,61,23,24,25,26,27,29,30,31,32,33,34,35,37,39,40,42,43,45,46,47,53,54,55,56,57,60,24,25,27,28,29,30,31,32,33,34,35,37,39,40,41,42,46,53,60,26,27,29,30,32,33,35,36,38,39,40,41,42,43,46,26,27,29,30,32,33,35,36,38,39,40,41,42,43,46,55,27,28,29,30,31,32,33,34,35,37,39,40,41,42,43,45,46,47,53,54,60,61,28,29,30,31,32,33,34,35,36,37,40,41,44,49,53,29,30,31,32,33,34,35,36,37,38,39,40,41,42,43,45,46,47,48,53,54,55,56,57,60,61,30,31,32,33,34,35,36,37,38,39,40,41,42,44,45,46,47,48,49,52,53,54,55,56,61,31,32,34,35,36,39,40,41,42,43,44,45,46,50,53,55,60,32,33,35,36,37,38,39,40,41,42,43,44,46,48,50,52,55,33,34,35,37,41,45,47,34,35,36,38,39,40,41,42,43,44,45,46,50,53,55,60,35,36,37,38,39,40,41,42,43,44,45,46,47,48,49,50,51,52,54,55,56,61,36,37,38,39,40,41,42,43,44,45,47,48,49,50,51,53,54,55,60,37,39,40,41,42,43,45,46,47,53,54,55,56,57,60,61,38,39,40,41,42,43,44,45,46,50,53,54,55,56,57,60,39,40,41,42,43,44,45,46,47,49,50,53,54,55,56,57,60,61,40,41,44,45,47,48,49,52,53,41,44,45,46,47,48,49,52,54,61,42,43,44,45,46,47,49,50,51,53,54,55,56,57,60,44,45,46,47,48,49,52,53,54,61,44,45,46,47,48,49,52,53,54,55,56,57,60,61,45,46,47,48,53,54,55,56,57,60,61,46,48,49,50,51,52,53,55,60,47,48,49,50,51,52,53,54,55,56,57,58,59,60,48,49,50,51,52,53,54,55,56,57,58,59,60,49,50,51,53,54,55,56,57,60,61,50,52,53,54,55,56,57,60,61,52,53,54,55,56,57,60,61,52,53,54,55,56,57,60,61,53,54,55,56,57,58,60,61,54,55,56,61,55,60,61,60,61,60,61,60,61,60,61,60,61,61];

USEFUL_RES = [{},
	{1,2,3,4,5,6,7,8,9,10,11,12},
	{1,2,3,4,6,9,10,11},
	{1,2,3,4,6,9,10,11},
	{3,4,6,10,11},
	{1,2,3,4,6,10,11},
	{1,2,9},
	{1,2,3,4,5,6,7,8,9,10,11,12},
	{1,2,3,4,6,9,10,11},
	{1,2,5,8,9},
	{1,2,3,4,5,6,8,9,10,11},
	{1,2,3,4,6,9,10,11},
	{3,4,6,10,11},
	{3,4,5,6,8,10,11},
	{1,2,3,5,7,8,9,11,12},
	{1,2,9},
	{1,3,5,7,8,12},
	{1,2,3,4,6,9,10,11},
	{1,3,5,7,8,11,12},
	{1,3,5,7,8,11,12},
	{1,2,3,5,7,8,9,11,12},
	{1,2,3,4,6,9,10,11},
	{1,2,3,4,5,6,7,8,9,10,11,12},
	{1,2,3,4,6,9,10,11},
	{1,2,3,4,5,6,7,8,10,11,12},
	{1,2,3,4,5,6,7,8,9,10,11,12},
	{1,2,3,4,6,9,10,11},
	{1,2,9},
	{1,2,3,4,6,9,10,11},
	{1,2,3,4,5,6,9,10,11},
	{5,8},
	{1,2,3,4,5,6,10,11},
	{1,2,3,4,6,9,10,11},
	{1,2,3,4,5,6,8,9,10,11},
	{1,2,3,4,5,6,10,11},
	{1,2,3,4,5,6,7,8,9,10,11,12},
	{1,2,3,4,5,6,8,9,10,11},
	{1,2,3,4,6,9,10,11},
	{1,2,3,4,5,6,7,8,9,10,11,12},
	{3,4,6,10,11},
	{1,2,3,4,6,10,11},
	{1,2,3,4,6,9,10,11},
	{1,2,3,4,5,6,7,8,9,10,11,12},
	{1,2,3,4,6,9,10,11},
	{1,2,3,4,5,6,8,9,10,11},
	{1,2,3,4,6,9,10,11},
	{1,2,3,4,6,9,10,11},
	{1,2,3,4,5,6,9,10,11},
	{1,2,3,4,6,9,10,11},
	{1,2,3,4,6,9,10,11},
	{1,2,3,4,5,6,7,8,9,10,11,12},
	{1,2,3,4,5,6,7,8,10,11,12},
	{1,2,3,4,5,6,8,9,10,11},
	{1,5,11},
	{1,2,3,4,5,6,7,8,10,11,12},
	{1,2,3,4,6,9,10,11},
	{1,2,3,4,6,9,10,11},
	{1,2,3,4,5,6,7,8,9,10,11,12},
	{1,2,3,4,5,6,7,8,9,10,11,12},
	{1,2,5,8,9},
	{1,2,3,4,5,6,7,8,9,10,11,12},
	{}];

POTENTIAL_ACT = [{2,3,4,6,7,8,9,10,11,12,15,16,17,18,19,20,21,22,23,24,25,26,27,28,29,30,32,33,34,35,36,37,38,39,41,42,43,44,45,46,47,48,49,50,51,52,53,54,55,56,57,58,59,60,61},
	{2,3,4,6,7,8,9,10,11,12,15,16,18,21,22,23,24,25,26,27,28,29,30,32,33,34,35,36,37,38,39,41,42,43,44,45,46,47,48,49,50,51,52,53,55,56,57,58,59,60,61},
	{2,3,4,5,6,8,9,11,12,13,14,15,17,18,19,20,21,22,23,24,25,26,27,29,30,32,33,34,35,36,37,38,39,40,41,42,43,44,45,46,47,48,49,50,51,52,53,55,56,57,58,59,61},
	{2,3,4,5,6,8,9,11,12,13,14,18,22,23,24,25,26,27,29,30,32,33,34,35,36,37,38,39,40,41,42,43,44,45,46,47,48,49,50,51,52,53,55,56,57,58,59,61},
	{2,8,10,11,14,15,17,19,20,21,23,25,26,30,31,32,34,35,36,37,39,43,45,48,51,52,53,54,55,58,59,60,61},
	{2,3,4,5,6,8,9,11,12,13,14,18,22,23,24,25,26,27,29,30,32,33,34,35,36,37,38,39,40,41,42,43,44,45,46,47,48,49,50,51,52,53,55,56,57,58,59,61},
	{2,8,15,17,19,20,21,23,25,26,36,39,43,51,52,55,58,59,61},
	{2,8,10,11,14,15,17,19,20,21,23,25,26,31,34,36,37,39,43,45,51,52,53,55,58,59,60,61},
	{2,3,4,7,8,9,10,11,12,15,16,18,21,22,23,24,26,27,28,29,30,33,34,36,37,38,39,42,43,44,45,46,47,48,49,50,51,53,56,57,58,59,60,61},
	{2,3,4,5,6,8,9,11,12,13,14,18,22,23,24,25,26,27,29,30,32,33,34,35,36,37,38,39,40,41,42,43,44,45,46,47,48,49,50,51,52,53,55,56,57,58,59,61},
	{2,3,4,5,6,8,9,11,12,13,14,15,18,19,20,21,22,23,24,25,26,27,29,30,32,33,34,35,36,37,38,39,40,41,42,43,44,45,46,47,48,49,50,51,52,53,54,55,56,57,58,59,61},
	{2,8,15,17,19,20,21,23,25,26,36,39,43,51,52,55,58,59,61}];
